p edge 50 322 10
v 3 5 23 34
v 3 4 22 29
v 5 8 12 15 35 44
v 3 6 16 21
v 5 7 11 14 25 30
v 7 3 9 13 36 41 42 48
v 6 18 33 38 39 45 47
v 4 10 32 37 40
v 9 2 17 19 20 26 27 28 43 46
v 5 1 24 31 49 50
e 1 2
e 1 4
e 1 11
e 1 23
e 1 25
e 1 30
e 1 32
e 1 36
e 1 37
e 1 42
e 1 47
e 1 49
e 2 7
e 2 17
e 2 26
e 2 27
e 2 28
e 2 29
e 2 38
e 2 39
e 2 40
e 2 47
e 2 49
e 3 4
e 3 7
e 3 14
e 3 19
e 3 26
e 3 31
e 3 32
e 3 34
e 3 35
e 3 37
e 3 40
e 3 47
e 3 50
e 4 7
e 4 8
e 4 9
e 4 11
e 4 13
e 4 16
e 4 17
e 4 18
e 4 19
e 4 20
e 4 21
e 4 27
e 4 30
e 4 32
e 4 37
e 4 39
e 4 42
e 4 43
e 4 49
e 5 7
e 5 9
e 5 20
e 5 22
e 5 23
e 5 25
e 5 27
e 5 31
e 5 34
e 5 44
e 5 46
e 5 47
e 5 49
e 6 11
e 6 12
e 6 13
e 6 16
e 6 18
e 6 22
e 6 23
e 6 24
e 6 26
e 6 28
e 6 30
e 6 34
e 6 35
e 6 48
e 7 11
e 7 15
e 7 19
e 7 21
e 7 24
e 7 26
e 7 39
e 7 44
e 7 49
e 8 12
e 8 15
e 8 22
e 8 23
e 8 26
e 8 27
e 8 28
e 8 33
e 8 36
e 8 38
e 8 40
e 8 43
e 8 48
e 8 49
e 8 50
e 9 11
e 9 14
e 9 15
e 9 16
e 9 19
e 9 23
e 9 28
e 9 32
e 9 35
e 10 13
e 10 14
e 10 18
e 10 21
e 10 23
e 10 24
e 10 29
e 10 31
e 10 32
e 10 39
e 10 41
e 10 43
e 10 45
e 10 49
e 11 13
e 11 15
e 11 18
e 11 36
e 12 14
e 12 15
e 12 20
e 12 29
e 12 30
e 12 38
e 12 40
e 12 45
e 13 18
e 13 19
e 13 22
e 13 23
e 13 26
e 13 31
e 13 34
e 13 38
e 13 40
e 13 50
e 14 19
e 14 21
e 14 25
e 14 30
e 14 36
e 14 39
e 14 41
e 14 43
e 15 19
e 15 24
e 15 25
e 15 31
e 15 36
e 15 43
e 15 47
e 16 17
e 16 20
e 16 25
e 16 34
e 16 40
e 16 44
e 16 46
e 16 48
e 17 18
e 17 20
e 17 21
e 17 24
e 17 28
e 17 33
e 17 35
e 17 36
e 17 37
e 17 43
e 17 44
e 17 49
e 18 19
e 18 23
e 18 28
e 18 29
e 18 32
e 18 33
e 18 39
e 18 40
e 18 43
e 18 50
e 19 29
e 19 30
e 19 31
e 19 32
e 19 34
e 19 36
e 19 37
e 19 41
e 19 43
e 19 48
e 20 22
e 20 23
e 20 27
e 20 28
e 20 29
e 20 41
e 20 44
e 20 46
e 20 47
e 20 48
e 21 23
e 21 24
e 21 32
e 21 39
e 21 47
e 21 48
e 21 49
e 22 25
e 22 26
e 22 28
e 22 30
e 22 32
e 22 35
e 22 36
e 22 38
e 22 39
e 22 44
e 22 46
e 22 48
e 22 49
e 23 32
e 23 34
e 24 27
e 24 31
e 24 38
e 24 41
e 24 43
e 25 29
e 25 32
e 25 33
e 25 34
e 25 41
e 25 43
e 25 49
e 26 27
e 26 28
e 26 33
e 26 35
e 26 44
e 26 49
e 27 31
e 27 32
e 27 37
e 27 46
e 27 49
e 28 35
e 28 41
e 28 42
e 28 43
e 28 44
e 28 46
e 28 47
e 29 34
e 29 39
e 29 40
e 29 45
e 29 46
e 29 47
e 30 31
e 30 38
e 30 40
e 30 45
e 30 50
e 31 32
e 31 33
e 31 36
e 31 37
e 31 44
e 31 45
e 31 48
e 31 49
e 32 33
e 32 35
e 32 37
e 32 39
e 32 44
e 32 50
e 33 35
e 33 45
e 33 50
e 34 35
e 34 41
e 35 39
e 36 45
e 37 39
e 37 40
e 38 50
e 39 41
e 39 45
e 39 46
e 39 50
e 40 43
e 40 47
e 41 48
e 42 45
e 42 50
e 43 46
e 43 47
e 43 50
e 44 45
e 44 46
e 45 47
e 45 49
e 46 47
e 48 49
e 48 50
